   96.00   5
  26   12
54381865.0 14069234.3 4555919.98 1597609.22 596587.920 
231730.333 93036.6313 38153.5612 15845.7525 6669.64642 
2867.96028 1266.56393 572.884266 269.651590 131.459596 
65.9931394 33.4908148 16.9004305 8.58168841 4.10837543 
1.91165809 0.79630721 0.30523995 0.12209598 0.04883839 
0.01953536
  0.00280635 -0.00118972  0.00058372 -0.00030575  0.00015473 -0.00006795  0.00002317 -0.00003869  0.00008459 -0.00011570  0.00009845  -0.00025788
  0.00255453 -0.00108625  0.00053323 -0.00027935  0.00014137 -0.00006208  0.00002117 -0.00003536  0.00007735 -0.00010584  0.00008967  -0.00023368
  0.00716700 -0.00305065  0.00149787 -0.00078471  0.00039714 -0.00017441  0.00005946 -0.00009929  0.00021701 -0.00029677  0.00025318  -0.00066511
  0.01024797 -0.00438671  0.00215593 -0.00112983  0.00057180 -0.00025110  0.00008561 -0.00014304  0.00031309 -0.00042853  0.00036179  -0.00093907
  0.02023966 -0.00871480  0.00428778 -0.00224735  0.00113760 -0.00049964  0.00017033 -0.00028433  0.00062094 -0.00084875  0.00072858  -0.00192763
  0.03276662 -0.01428542  0.00704342 -0.00369449  0.00187004 -0.00082119  0.00027997 -0.00046808  0.00102593 -0.00140544  0.00117522  -0.00301614
  0.05836615 -0.02588320  0.01280252 -0.00671835  0.00340248 -0.00149467  0.00050954 -0.00084981  0.00185197 -0.00252836  0.00220402  -0.00593352
  0.09795646 -0.04477012  0.02225985 -0.01170356  0.00592658 -0.00260255  0.00088736 -0.00148560  0.00326658 -0.00448419  0.00366534  -0.00914881
  0.16648311 -0.07967408  0.03996831 -0.02104313  0.01067029 -0.00468954  0.00159865 -0.00266095  0.00577163 -0.00785914  0.00708531  -0.01977836
  0.25479225 -0.13189697  0.06712515 -0.03552599  0.01801366 -0.00791085  0.00269776 -0.00453237  0.01004691 -0.01386060  0.01068860  -0.02467382
  0.31537000 -0.18040450  0.09376028 -0.04975084  0.02531238 -0.01114084  0.00379723 -0.00627155  0.01334903 -0.01798606  0.01837439  -0.05751953
  0.23037309 -0.11040555  0.05286917 -0.02767982  0.01387782 -0.00605251  0.00206724 -0.00365235  0.00901538 -0.01311690  0.00260370   0.01940678
  0.05853008  0.25103776 -0.20480333  0.12285340 -0.06419178  0.02834146 -0.00968623  0.01677955 -0.03975692  0.05717393 -0.02520346  -0.00307178
  0.00032203  0.58422157 -0.59365532  0.37540830 -0.20133631  0.08992798 -0.03068925  0.04986301 -0.10165624  0.13512433 -0.18226878   0.68864194
  0.00087707  0.29422818 -0.25788807  0.17251425 -0.09173787  0.04023446 -0.01382849  0.02723488 -0.08067940  0.12752053  0.05895848  -0.66757042
 -0.00058956  0.02136010  0.78353574 -0.89926394  0.56226964 -0.25899186  0.08918630 -0.16083239  0.41064116 -0.63776476  0.18531810   0.45280021
  0.00034634  0.00176190  0.57112703 -0.79339040  0.55426870 -0.26918034  0.09253852 -0.13592557  0.19659130 -0.18941288  0.98966444  -4.93009641
 -0.00021089 -0.00104790  0.03957117  0.93093256 -0.99026169  0.53345076 -0.18615918  0.28659309 -0.48794911  0.77334210 -2.60011427  14.08833356
  0.00012612  0.00042378  0.00799493  0.73039883 -1.10070744  0.65024248 -0.23397692  0.47978875 -1.45178368  2.23695329  1.33347076 -19.29396497
 -0.00006496 -0.00019468 -0.00408725  0.02714081  1.13248255 -0.99194885  0.37732372 -0.88175679  3.12392321 -7.00329720  2.60323774  16.89537029
  0.00003062  0.00009925  0.00183145  0.00797042  0.67911555 -0.78311410  0.31242387 -0.30612333 -1.05014881  8.21371909 -5.57065526 -11.06491089
 -0.00001346 -0.00004202 -0.00083023 -0.00340750 -0.00746358  1.01825449 -0.50544940  1.26135955 -2.69538727 -5.45308851  6.45593491   6.09700721
  0.00000667  0.00002027  0.00041956  0.00166773  0.01297112  0.57096716 -0.56091739  0.16970181  4.04625594  1.81633463 -6.96665718  -3.71147819
 -0.00000365 -0.00001115 -0.00022975 -0.00093920 -0.00697523 -0.03898310  0.38867533 -1.84000955 -2.25116068  1.25197346  7.04855286   2.50189828
  0.00000171  0.00000510  0.00010837  0.00043711  0.00367713  0.06560543  0.80938434  0.47798667 -0.26698489 -2.49205943 -5.37417179  -1.44010561
 -0.00000049 -0.00000150 -0.00003083 -0.00012748 -0.00090990 -0.00292636  0.13649339  0.84340709  0.81600349  1.40952204  2.23258711   0.50132307
  7
  -4725.9315   -906.6015   -235.5053    -63.3402    -14.9838     -2.4317     -0.2112
   23   10
26373058.3 5586178.15 1405261.35 395676.545 121642.647 
40327.5739 14358.9652 5489.11936 2246.39134 976.278572 
445.992842 212.149425 102.166160 51.5264301 25.9484136 
12.8033459 6.16600367 2.83830865 1.21117260 0.49309424 
0.19723770 0.07889508 0.03155803
  0.00005839 -0.00003113  0.00001643 -0.00000806  0.00000319 -0.00000162  0.00000380 -0.00000395  0.00000523 -0.00000993
  0.00012669 -0.00006762  0.00003569 -0.00001751  0.00000694 -0.00000353  0.00000826 -0.00000859  0.00001144 -0.00002177
  0.00035065 -0.00018748  0.00009901 -0.00004856  0.00001925 -0.00000978  0.00002293 -0.00002378  0.00003137 -0.00005953
  0.00087814 -0.00047080  0.00024879 -0.00012212  0.00004839 -0.00002459  0.00005761 -0.00006004  0.00008042 -0.00015332
  0.00228390 -0.00123020  0.00065093 -0.00031927  0.00012658 -0.00006435  0.00015093 -0.00015605  0.00020376 -0.00038558
  0.00604107 -0.00327374  0.00173448 -0.00085254  0.00033782 -0.00017162  0.00040179 -0.00042066  0.00057150 -0.00109443
  0.01638042 -0.00897416  0.00476957 -0.00234015  0.00092827 -0.00047214  0.00110830 -0.00113941  0.00145996 -0.00274835
  0.04437001 -0.02468553  0.01316419 -0.00648834  0.00257133 -0.00130584  0.00305478 -0.00322078  0.00446713 -0.00860985
  0.11362631 -0.06507796  0.03499395 -0.01720202  0.00683061 -0.00347638  0.00817093 -0.00833568  0.01040176 -0.01945520
  0.24751702 -0.14744148  0.08004016 -0.03971185  0.01574706 -0.00799319  0.01867599 -0.01993993  0.02864032 -0.05579046
  0.38191207 -0.23656737  0.13001761 -0.06399350  0.02547557 -0.01299237  0.03066664 -0.03035456  0.03391162 -0.06116498
  0.31274022 -0.11630672  0.04683487 -0.02204962  0.00839104 -0.00414311  0.00912341 -0.01357606  0.03524893 -0.07505402
  0.08778098  0.36867366 -0.31723552  0.17968086 -0.07282092  0.03697084 -0.08616846  0.10244451 -0.18531508  0.39240353
  0.00112732  0.57059738 -0.50784533  0.27558861 -0.11336253  0.05864436 -0.14219487  0.12408180 -0.06073079  0.07260392
  0.00127193  0.19291850  0.23206185 -0.20158818  0.09338932 -0.05043259  0.13273084 -0.09873537 -0.06346774  0.06914422
 -0.00077107  0.00880449  0.78061910 -0.75284714  0.34100991 -0.17552833  0.41250120 -0.56239055  1.23057139 -2.60778984
  0.00036404  0.00060340  0.23048778  0.20896215 -0.14942776  0.07999159 -0.20797091  0.54582149 -1.85725620  5.48352885
 -0.00016534 -0.00040407  0.00120044  0.87651082 -0.62153421  0.37440770 -1.08214527  0.86142328  0.60233195 -5.94272810
  0.00008161  0.00012295  0.00214525  0.18481864  0.18743893 -0.24044264  1.46063151 -2.17004092  1.43709964  4.65697621
 -0.00004028 -0.00006194 -0.00097891 -0.00122198  0.77390361 -0.52407783  0.10932744  1.94594239 -2.88288320 -3.31736049
  0.00002077  0.00003139  0.00047946  0.00171101  0.25163548  0.17599561 -1.38295295 -0.39941637  3.42796162  2.28627798
 -0.00000976 -0.00001499 -0.00022015 -0.00064385  0.00654119  0.74572157  0.54488465 -1.24350182 -2.91657785 -1.37114243
  0.00000308  0.00000465  0.00006990  0.00019479  0.00148559  0.24854738  0.45317825  1.25389189  1.40964139  0.52191523
  6
   -750.0281   -191.7177    -48.7639    -10.2621     -1.1841     -0.1000
   17    9
15845.7525 6669.64642 2867.96028 1266.56393 572.884266 
269.651590 131.459596 65.9931394 33.4908148 16.9004305 
8.58168841 4.10837543 1.91165809 0.79630721 0.30523995 
0.12209598 0.04883839
  0.00035516 -0.00020297  0.00009309 -0.00002734  0.00004647 -0.00004493  0.00005189 -0.00007864  0.00028818
  0.00089267 -0.00051079  0.00023053 -0.00006748  0.00011872 -0.00015573  0.00020039 -0.00010987 -0.00021691
  0.00428312 -0.00246567  0.00113435 -0.00033325  0.00056489 -0.00053053  0.00060497 -0.00098843  0.00384850
  0.01716349 -0.00994163  0.00452202 -0.00132564  0.00230837 -0.00278756  0.00349551 -0.00266305  0.00136246
  0.06323299 -0.03716013  0.01713369 -0.00503468  0.00858302 -0.00858104  0.01006939 -0.01387319  0.04638410
  0.17986077 -0.10754159  0.04933475 -0.01448281  0.02516328 -0.02979517  0.03714768 -0.03041671  0.02923193
  0.35070583 -0.20792319  0.09630733 -0.02832842  0.04821830 -0.04672881  0.05426940 -0.08286458  0.30322057
  0.38838995 -0.17977554  0.07350878 -0.02114509  0.03818657 -0.05806917  0.07751473 -0.02403934 -0.20281404
  0.18589471  0.18300695 -0.12462840  0.03864405 -0.07028043  0.11278201 -0.15808108  0.03774461  0.42894521
  0.02568508  0.53768394 -0.34117441  0.10549048 -0.17902683  0.13251119 -0.14418539  0.48067298 -2.67419177
  0.00086474  0.36194914 -0.08535023  0.01719376 -0.04817074  0.21218454 -0.30546876 -0.29101865  4.76691586
 -0.00016067  0.05971115  0.52218409 -0.20484436  0.44225677 -0.97052997  1.65081499 -1.13242847 -4.44543355
  0.00004851 -0.00107093  0.52090019 -0.18319284  0.27165152  0.51926558 -2.04272529  2.21479613  2.81074146
 -0.00004046  0.00066565  0.12205158  0.26953700 -0.97727476  0.84516225  1.08329430 -2.32222213 -1.46077939
  0.00001562 -0.00031110 -0.00147078  0.49314519 -0.08311185 -1.36612131  0.17840793  2.24053175  0.83817907
 -0.00000846  0.00014499  0.00245425  0.36178298  0.58845302  0.44504894 -1.16335862 -1.97774681 -0.50803070
  0.00000264 -0.00004955 -0.00086513  0.14618060  0.22600479  0.48621970  1.07106313  1.07053779  0.21012479
  4
   -152.6807    -33.7984     -5.0608     -0.2194
   13    7
976.278572 445.992842 212.149425 102.166160 51.5264301 
25.9484136 12.8033459 6.16600367 2.83830865 1.21117260 
0.49309424 0.19723770 0.07889508
  0.00113714 -0.00039243  0.00037997 -0.00042516  0.00054758 -0.00108185  0.00119306
  0.00462471 -0.00162017  0.00164322 -0.00195316  0.00137991 -0.00074075  0.00332162
  0.02474253 -0.00860112  0.00840779 -0.00952297  0.01119898 -0.02031265  0.02487254
  0.08624721 -0.03031308  0.03043970 -0.03566116  0.03018548 -0.03244729  0.07058806
  0.21555663 -0.07495687  0.07340073 -0.08325032  0.09566217 -0.16779367  0.20961253
  0.37024219 -0.12142525  0.11866086 -0.13552710  0.09983212 -0.05931247  0.16995254
  0.37899328 -0.08439698  0.06163668 -0.04801598  0.09234630 -0.21204075 -0.01273489
  0.17528849  0.13519888 -0.16975212  0.23282238 -0.41451863  1.04959129 -1.28288129
  0.02346357  0.40354490 -0.44137376  0.56203204 -0.31131409 -0.93314955  2.00517206
  0.00040999  0.43878108 -0.04047899 -0.69943305  1.21112651  0.00905090 -1.83334213
  0.00002135  0.24296251  0.56226059 -0.31402241 -1.13086677  0.86659906  1.50322025
  0.00000980  0.06455321  0.38293124  0.66206813  0.16164524 -1.34669500 -1.19256706
 -0.00000232  0.00264758  0.09226837  0.25473668  0.61519451  1.04892554  0.67480833
  2
    -18.6510     -0.5950
    5    5
4.10837543 1.91165809 0.79630721 0.30523995 0.12209598
  0.21092422 -0.40401608  0.58564893 -0.95695930  0.86049519
  0.41111894 -0.47243499 -0.06559506  1.14542917 -1.40261036
  0.51387094  0.46569749 -0.77198914 -0.42114562  1.36933729
  0.13209768  0.48804207  0.70251786 -0.43670511 -1.28960032
  0.01544015  0.07817746  0.32364787  0.83177314  0.92543232
  0
    3    3
0.95556865 0.36628794 0.14651517
  0.98312799 -0.60360966  0.22751948
  0.01573205  1.11983654 -0.78781480
  0.07314211  0.03610946  1.19729993
  0
